;; translated from ./bv/nest-if6.c.vmt
;; original benchmark available at: https://es-static.fbk.eu/people/griggio/ic3ia/index.html
;; author: Alberto Griggio <griggio@fbk.eu>
(set-logic HORN)
(declare-fun state (Bool Bool Bool Bool (_ BitVec 32) (_ BitVec 32) (_ BitVec 32) (_ BitVec 32) (_ BitVec 32) (_ BitVec 32)) Bool)
(assert (forall ((|.PC.1| Bool) (|.PC.0| Bool) (|.PC.0.next| Bool) (|.PC.1.next| Bool) (|.PC.2.next| Bool) (|.PC.3.next| Bool) (|k__7$main| (_ BitVec 32)) (|n__3$main| (_ BitVec 32)) (|i__15$main| (_ BitVec 32)) (|k__7$main.next| (_ BitVec 32)) (|n__3$main.next| (_ BitVec 32)) (|__RET__$main.next| (_ BitVec 32)) (|__RET__$main| (_ BitVec 32)) (|nm1__13$main| (_ BitVec 32)) (|nm1__13$main.next| (_ BitVec 32)) (|i__15$main.next| (_ BitVec 32)) (|lda__1$main| (_ BitVec 32)) (|lda__1$main.next| (_ BitVec 32)) (|__NONDET_INLINE_INIT__4__13$main#3| (_ BitVec 32)) (|__NONDET_INLINE_INIT__2__12$main#2| (_ BitVec 32)) (|__NONDET_INLINE_INIT__4__13$main#1| (_ BitVec 32)) (|__NONDET_INLINE_INIT__2__12$main#0| (_ BitVec 32)) (|.PC.3| Bool) (|.PC.2| Bool)) (=> (let ((.def_18 (not .PC.3)))
(let ((.def_15 (not .PC.2)))
(let ((.def_12 (not .PC.1)))
(let ((.def_10 (not .PC.0)))
(let ((.def_13 (and .def_10 .def_12)))
(let ((.def_16 (and .def_13 .def_15)))
(let ((.def_19 (and .def_16 .def_18)))
.def_19))))))) (state |.PC.0| |.PC.1| |.PC.2| |.PC.3| |__RET__$main| |i__15$main| |k__7$main| |n__3$main| |nm1__13$main| |lda__1$main|))))
(assert (forall ((|.PC.1| Bool) (|.PC.0| Bool) (|.PC.0.next| Bool) (|.PC.1.next| Bool) (|.PC.2.next| Bool) (|.PC.3.next| Bool) (|k__7$main| (_ BitVec 32)) (|n__3$main| (_ BitVec 32)) (|i__15$main| (_ BitVec 32)) (|k__7$main.next| (_ BitVec 32)) (|n__3$main.next| (_ BitVec 32)) (|__RET__$main.next| (_ BitVec 32)) (|__RET__$main| (_ BitVec 32)) (|nm1__13$main| (_ BitVec 32)) (|nm1__13$main.next| (_ BitVec 32)) (|i__15$main.next| (_ BitVec 32)) (|lda__1$main| (_ BitVec 32)) (|lda__1$main.next| (_ BitVec 32)) (|__NONDET_INLINE_INIT__4__13$main#3| (_ BitVec 32)) (|__NONDET_INLINE_INIT__2__12$main#2| (_ BitVec 32)) (|__NONDET_INLINE_INIT__4__13$main#1| (_ BitVec 32)) (|__NONDET_INLINE_INIT__2__12$main#0| (_ BitVec 32)) (|.PC.3| Bool) (|.PC.2| Bool)) (=> (and (state |.PC.0| |.PC.1| |.PC.2| |.PC.3| |__RET__$main| |i__15$main| |k__7$main| |n__3$main| |nm1__13$main| |lda__1$main|) (let ((.def_12 (not .PC.1)))
(let ((.def_151 (and .PC.0 .def_12)))
(let ((.def_15 (not .PC.2)))
(let ((.def_152 (and .def_15 .def_151)))
(let ((.def_227 (and .PC.3 .def_152)))
(let ((.def_59 (not .PC.1.next)))
(let ((.def_61 (and .def_59 .PC.0.next)))
(let ((.def_57 (not .PC.2.next)))
(let ((.def_62 (and .def_57 .def_61)))
(let ((.def_133 (and .PC.3.next .def_62)))
(let ((.def_228 (and .def_133 .def_227)))
(let ((.def_156 (bvneg k__7$main)))
(let ((.def_158 (bvadd n__3$main .def_156)))
(let ((.def_205 (bvslt i__15$main .def_158)))
(let ((.def_217 (not .def_205)))
(let ((.def_76 (= k__7$main.next k__7$main)))
(let ((.def_218 (and .def_76 .def_217)))
(let ((.def_91 (= n__3$main.next n__3$main)))
(let ((.def_219 (and .def_91 .def_218)))
(let ((.def_48 (= __RET__$main __RET__$main.next)))
(let ((.def_220 (and .def_48 .def_219)))
(let ((.def_95 (= nm1__13$main.next nm1__13$main)))
(let ((.def_221 (and .def_95 .def_220)))
(let ((.def_52 (= i__15$main i__15$main.next)))
(let ((.def_222 (and .def_52 .def_221)))
(let ((.def_99 (= lda__1$main.next lda__1$main)))
(let ((.def_223 (and .def_99 .def_222)))
(let ((.def_80 (not .PC.0.next)))
(let ((.def_120 (and .def_59 .def_80)))
(let ((.def_187 (and .def_57 .def_120)))
(let ((.def_188 (and .PC.3.next .def_187)))
(let ((.def_224 (and .def_188 .def_223)))
(let ((.def_137 (and .PC.0 .PC.1)))
(let ((.def_213 (and .PC.2 .def_137)))
(let ((.def_18 (not .PC.3)))
(let ((.def_214 (and .def_18 .def_213)))
(let ((.def_225 (and .def_214 .def_224)))
(let ((.def_203 (bvadd (_ bv1 32) i__15$main)))
(let ((.def_204 (= i__15$main.next .def_203)))
(let ((.def_206 (and .def_204 .def_205)))
(let ((.def_207 (and .def_76 .def_206)))
(let ((.def_208 (and .def_91 .def_207)))
(let ((.def_209 (and .def_48 .def_208)))
(let ((.def_210 (and .def_95 .def_209)))
(let ((.def_211 (and .def_99 .def_210)))
(let ((.def_101 (and .PC.1.next .PC.0.next)))
(let ((.def_173 (and .PC.2.next .def_101)))
(let ((.def_55 (not .PC.3.next)))
(let ((.def_174 (and .def_55 .def_173)))
(let ((.def_212 (and .def_174 .def_211)))
(let ((.def_215 (and .def_212 .def_214)))
(let ((.def_193 (bvadd (_ bv1 32) k__7$main)))
(let ((.def_194 (= k__7$main.next .def_193)))
(let ((.def_195 (and .def_91 .def_194)))
(let ((.def_196 (and .def_48 .def_195)))
(let ((.def_197 (and .def_95 .def_196)))
(let ((.def_198 (and .def_52 .def_197)))
(let ((.def_199 (and .def_99 .def_198)))
(let ((.def_63 (and .def_55 .def_62)))
(let ((.def_200 (and .def_63 .def_199)))
(let ((.def_10 (not .PC.0)))
(let ((.def_13 (and .def_10 .def_12)))
(let ((.def_16 (and .def_13 .def_15)))
(let ((.def_192 (and .def_16 .PC.3)))
(let ((.def_201 (and .def_192 .def_200)))
(let ((.def_162 (bvslt .def_158 (_ bv1 32))))
(let ((.def_163 (not .def_162)))
(let ((.def_142 (bvslt k__7$main nm1__13$main)))
(let ((.def_164 (and .def_142 .def_163)))
(let ((.def_160 (= .def_158 (_ bv1 32))))
(let ((.def_179 (and .def_160 .def_164)))
(let ((.def_178 (and .def_142 .def_162)))
(let ((.def_180 (or .def_178 .def_179)))
(let ((.def_181 (and .def_76 .def_180)))
(let ((.def_182 (and .def_91 .def_181)))
(let ((.def_183 (and .def_48 .def_182)))
(let ((.def_184 (and .def_95 .def_183)))
(let ((.def_185 (and .def_52 .def_184)))
(let ((.def_186 (and .def_99 .def_185)))
(let ((.def_189 (and .def_186 .def_188)))
(let ((.def_153 (and .def_18 .def_152)))
(let ((.def_190 (and .def_153 .def_189)))
(let ((.def_166 (= i__15$main.next (_ bv1 32))))
(let ((.def_161 (not .def_160)))
(let ((.def_165 (and .def_161 .def_164)))
(let ((.def_167 (and .def_165 .def_166)))
(let ((.def_168 (and .def_76 .def_167)))
(let ((.def_169 (and .def_91 .def_168)))
(let ((.def_170 (and .def_48 .def_169)))
(let ((.def_171 (and .def_95 .def_170)))
(let ((.def_172 (and .def_99 .def_171)))
(let ((.def_175 (and .def_172 .def_174)))
(let ((.def_176 (and .def_153 .def_175)))
(let ((.def_143 (not .def_142)))
(let ((.def_144 (and .def_76 .def_143)))
(let ((.def_145 (and .def_91 .def_144)))
(let ((.def_146 (and .def_48 .def_145)))
(let ((.def_147 (and .def_95 .def_146)))
(let ((.def_148 (and .def_52 .def_147)))
(let ((.def_149 (and .def_99 .def_148)))
(let ((.def_81 (and .PC.1.next .def_80)))
(let ((.def_82 (and .def_57 .def_81)))
(let ((.def_83 (and .def_55 .def_82)))
(let ((.def_150 (and .def_83 .def_149)))
(let ((.def_154 (and .def_150 .def_153)))
(let ((.def_138 (and .def_15 .def_137)))
(let ((.def_139 (and .def_18 .def_138)))
(let ((.def_128 (and .def_76 .def_91)))
(let ((.def_129 (and .def_48 .def_128)))
(let ((.def_130 (and .def_95 .def_129)))
(let ((.def_131 (and .def_52 .def_130)))
(let ((.def_132 (and .def_99 .def_131)))
(let ((.def_134 (and .def_132 .def_133)))
(let ((.def_140 (and .def_134 .def_139)))
(let ((.def_126 (and .def_13 .PC.2)))
(let ((.def_127 (and .def_18 .def_126)))
(let ((.def_135 (and .def_127 .def_134)))
(let ((.def_121 (and .PC.2.next .def_120)))
(let ((.def_122 (and .def_55 .def_121)))
(let ((.def_88 ((_ extract 31 31) n__3$main)))
(let ((.def_89 (= .def_88 (_ bv1 1))))
(let ((.def_112 (not .def_89)))
(let ((.def_110 (bvslt n__3$main lda__1$main)))
(let ((.def_111 (not .def_110)))
(let ((.def_113 (and .def_111 .def_112)))
(let ((.def_114 (and .def_76 .def_113)))
(let ((.def_115 (and .def_91 .def_114)))
(let ((.def_116 (and .def_48 .def_115)))
(let ((.def_117 (and .def_95 .def_116)))
(let ((.def_118 (and .def_52 .def_117)))
(let ((.def_119 (and .def_99 .def_118)))
(let ((.def_123 (and .def_119 .def_122)))
(let ((.def_105 (and .def_10 .PC.1)))
(let ((.def_106 (and .def_15 .def_105)))
(let ((.def_107 (and .def_18 .def_106)))
(let ((.def_124 (and .def_107 .def_123)))
(let ((.def_102 (and .def_57 .def_101)))
(let ((.def_103 (and .def_55 .def_102)))
(let ((.def_90 (and .def_76 .def_89)))
(let ((.def_92 (and .def_90 .def_91)))
(let ((.def_93 (and .def_48 .def_92)))
(let ((.def_96 (and .def_93 .def_95)))
(let ((.def_97 (and .def_52 .def_96)))
(let ((.def_100 (and .def_97 .def_99)))
(let ((.def_104 (and .def_100 .def_103)))
(let ((.def_108 (and .def_104 .def_107)))
(let ((.def_69 (= n__3$main.next |__NONDET_INLINE_INIT__4__13$main#3|)))
(let ((.def_67 (= lda__1$main.next |__NONDET_INLINE_INIT__2__12$main#2|)))
(let ((.def_70 (and .def_67 .def_69)))
(let ((.def_27 (bvslt n__3$main.next lda__1$main.next)))
(let ((.def_71 (and .def_27 .def_70)))
(let ((.def_29 ((_ extract 31 31) n__3$main.next)))
(let ((.def_30 (= .def_29 (_ bv1 1))))
(let ((.def_31 (not .def_30)))
(let ((.def_72 (and .def_31 .def_71)))
(let ((.def_34 (bvadd (_ bv4294967295 32) n__3$main.next)))
(let ((.def_36 (= .def_34 nm1__13$main.next)))
(let ((.def_73 (and .def_36 .def_72)))
(let ((.def_38 ((_ extract 31 31) nm1__13$main.next)))
(let ((.def_39 (= .def_38 (_ bv1 1))))
(let ((.def_74 (and .def_39 .def_73)))
(let ((.def_77 (and .def_74 .def_76)))
(let ((.def_78 (and .def_48 .def_77)))
(let ((.def_79 (and .def_52 .def_78)))
(let ((.def_84 (and .def_79 .def_83)))
(let ((.def_19 (and .def_16 .def_18)))
(let ((.def_85 (and .def_19 .def_84)))
(let ((.def_44 (= k__7$main.next (_ bv0 32))))
(let ((.def_40 (not .def_39)))
(let ((.def_25 (= n__3$main.next |__NONDET_INLINE_INIT__4__13$main#1|)))
(let ((.def_22 (= lda__1$main.next |__NONDET_INLINE_INIT__2__12$main#0|)))
(let ((.def_26 (and .def_22 .def_25)))
(let ((.def_28 (and .def_26 .def_27)))
(let ((.def_32 (and .def_28 .def_31)))
(let ((.def_37 (and .def_32 .def_36)))
(let ((.def_41 (and .def_37 .def_40)))
(let ((.def_45 (and .def_41 .def_44)))
(let ((.def_49 (and .def_45 .def_48)))
(let ((.def_53 (and .def_49 .def_52)))
(let ((.def_64 (and .def_53 .def_63)))
(let ((.def_65 (and .def_19 .def_64)))
(let ((.def_86 (or .def_65 .def_85)))
(let ((.def_109 (or .def_86 .def_108)))
(let ((.def_125 (or .def_109 .def_124)))
(let ((.def_136 (or .def_125 .def_135)))
(let ((.def_141 (or .def_136 .def_140)))
(let ((.def_155 (or .def_141 .def_154)))
(let ((.def_177 (or .def_155 .def_176)))
(let ((.def_191 (or .def_177 .def_190)))
(let ((.def_202 (or .def_191 .def_201)))
(let ((.def_216 (or .def_202 .def_215)))
(let ((.def_226 (or .def_216 .def_225)))
(let ((.def_229 (or .def_226 .def_228)))
.def_229)))))))))))))))))))))))))))))))))))))))))))))))))))))))))))))))))))))))))))))))))))))))))))))))))))))))))))))))))))))))))))))))))))))))))))))))))))))))))))))))))))))))))))))))))))))))))))))))))) (state |.PC.0.next| |.PC.1.next| |.PC.2.next| |.PC.3.next| |__RET__$main.next| |i__15$main.next| |k__7$main.next| |n__3$main.next| |nm1__13$main.next| |lda__1$main.next|))))
(assert (forall ((|.PC.1| Bool) (|.PC.0| Bool) (|.PC.0.next| Bool) (|.PC.1.next| Bool) (|.PC.2.next| Bool) (|.PC.3.next| Bool) (|k__7$main| (_ BitVec 32)) (|n__3$main| (_ BitVec 32)) (|i__15$main| (_ BitVec 32)) (|k__7$main.next| (_ BitVec 32)) (|n__3$main.next| (_ BitVec 32)) (|__RET__$main.next| (_ BitVec 32)) (|__RET__$main| (_ BitVec 32)) (|nm1__13$main| (_ BitVec 32)) (|nm1__13$main.next| (_ BitVec 32)) (|i__15$main.next| (_ BitVec 32)) (|lda__1$main| (_ BitVec 32)) (|lda__1$main.next| (_ BitVec 32)) (|__NONDET_INLINE_INIT__4__13$main#3| (_ BitVec 32)) (|__NONDET_INLINE_INIT__2__12$main#2| (_ BitVec 32)) (|__NONDET_INLINE_INIT__4__13$main#1| (_ BitVec 32)) (|__NONDET_INLINE_INIT__2__12$main#0| (_ BitVec 32)) (|.PC.3| Bool) (|.PC.2| Bool)) (=> (state |.PC.0| |.PC.1| |.PC.2| |.PC.3| |__RET__$main| |i__15$main| |k__7$main| |n__3$main| |nm1__13$main| |lda__1$main|) (let ((.def_12 (not .PC.1)))
(let ((.def_151 (and .PC.0 .def_12)))
(let ((.def_15 (not .PC.2)))
(let ((.def_152 (and .def_15 .def_151)))
(let ((.def_227 (and .PC.3 .def_152)))
(let ((.def_230 (not .def_227)))
.def_230)))))))))
(check-sat)
